(set-option :produce-models true); benchmark generated from python API
(set-info :status unknown)
(declare-fun l_0_0_5 () Real)
(declare-fun l_0_0_4 () Real)
(declare-fun l_0_0_1 () Real)
(declare-fun _a_0_ () Real)
(declare-fun l_0_0_6 () Real)
(declare-fun l_0_0_2 () Real)
(declare-fun _a_1_ () Real)
(declare-fun l_0_0_3 () Real)
(declare-fun l_0_1_7 () Real)
(declare-fun l_0_1_4 () Real)
(declare-fun l_0_1_8 () Real)
(declare-fun l_0_1_5 () Real)
(declare-fun l_0_1_1 () Real)
(declare-fun l_0_1_9 () Real)
(declare-fun l_0_1_6 () Real)
(declare-fun l_0_1_2 () Real)
(declare-fun l_0_1_3 () Real)
(declare-fun l_0_2_8 () Real)
(declare-fun l_0_2_7 () Real)
(declare-fun l_0_2_4 () Real)
(declare-fun l_0_2_5 () Real)
(declare-fun l_0_2_1 () Real)
(declare-fun l_0_2_9 () Real)
(declare-fun l_0_2_6 () Real)
(declare-fun l_0_2_2 () Real)
(declare-fun l_0_2_3 () Real)
(assert
 (let ((?x38 (- (- _a_0_ (* (* 80.0 l_0_0_1) l_0_0_1)) (* (* 2.0 l_0_0_4) l_0_0_5))))
 (= ?x38 0.0)))
(assert
 (let ((?x82 (* l_0_0_6 l_0_0_6)))
 (let ((?x80 (* l_0_0_5 l_0_0_5)))
 (let ((?x59 (* l_0_0_1 l_0_0_1)))
 (let ((?x83 (- (- (+ (- _a_1_ (* (* 160.0 l_0_0_1) l_0_0_2)) ?x59) ?x80) ?x82)))
 (= ?x83 0.0))))))
(assert
 (= (* (- l_0_0_4) l_0_0_4) 0.0))
(assert
 (let ((?x110 (- (* (* 2.0 l_0_0_1) l_0_0_2) (* (* 80.0 l_0_0_2) l_0_0_2))))
 (= (- ?x110 (* (* 80.0 l_0_0_3) l_0_0_3)) 0.0)))
(assert
 (= (+ (* l_0_0_2 l_0_0_2) (* l_0_0_3 l_0_0_3)) 0.0))
(assert
 (>= l_0_0_1 0.0))
(assert
 (>= l_0_0_3 0.0))
(assert
 (>= l_0_0_4 0.0))
(assert
 (>= l_0_0_6 0.0))
(assert
 (let ((?x141 (- (- (* 82.0 (* l_0_1_4 l_0_1_4)) (* l_0_1_7 l_0_1_7)) 790.0)))
 (= ?x141 0.0)))
(assert
 (let ((?x135 (* l_0_1_4 l_0_1_4)))
 (let ((?x158 (* 81.0 ?x135)))
 (let ((?x156 (+ (* (* (- _a_0_) l_0_1_1) l_0_1_1) (* (* 164.0 l_0_1_4) l_0_1_5))))
 (= (- (- (+ ?x156 ?x158) (* (* 2.0 l_0_1_7) l_0_1_8)) 69.0) 0.0)))))
(assert
 (let ((?x202 (* l_0_1_9 l_0_1_9)))
 (let ((?x200 (* l_0_1_8 l_0_1_8)))
 (let ((?x197 (* l_0_1_6 l_0_1_6)))
 (let ((?x198 (* 82.0 ?x197)))
 (let ((?x194 (* l_0_1_5 l_0_1_5)))
 (let ((?x195 (* 82.0 ?x194)))
 (let ((?x135 (* l_0_1_4 l_0_1_4)))
 (let ((?x188 (- (* (* (* (- 2.0) _a_0_) l_0_1_1) l_0_1_2) (* (* _a_1_ l_0_1_1) l_0_1_1))))
 (let ((?x199 (+ (+ (- (+ ?x188 (* (* 162.0 l_0_1_4) l_0_1_5)) ?x135) ?x195) ?x198)))
 (= (+ (- (- ?x199 ?x200) ?x202) 1.0) 0.0)))))))))))
(assert
 (let ((?x240 (- (* (- _a_0_) (+ (* l_0_1_2 l_0_1_2) (* l_0_1_3 l_0_1_3))) (* (* (* 2.0 _a_1_) l_0_1_1) l_0_1_2))))
 (let ((?x245 (+ (- ?x240 (* (* 2.0 l_0_1_4) l_0_1_5)) (* 81.0 (* l_0_1_5 l_0_1_5)))))
 (= (+ ?x245 (* 81.0 (* l_0_1_6 l_0_1_6))) 0.0))))
(assert
 (let ((?x197 (* l_0_1_6 l_0_1_6)))
 (let ((?x194 (* l_0_1_5 l_0_1_5)))
 (let ((?x272 (- (* (- _a_1_) (+ (* l_0_1_2 l_0_1_2) (* l_0_1_3 l_0_1_3))) ?x194)))
 (= (- ?x272 ?x197) 0.0)))))
(assert
 (>= l_0_1_1 0.0))
(assert
 (>= l_0_1_3 0.0))
(assert
 (>= l_0_1_4 0.0))
(assert
 (>= l_0_1_6 0.0))
(assert
 (>= l_0_1_7 0.0))
(assert
 (>= l_0_1_9 0.0))
(assert
 (let ((?x299 (+ (+ (* (* (- _a_0_) l_0_2_1) l_0_2_1) _a_0_) (* 1.0 _a_1_))))
 (let ((?x305 (- (- ?x299 (* (* 164.0 l_0_2_4) l_0_2_5)) (* (* 81.0 l_0_2_4) l_0_2_4))))
 (= (- ?x305 (* (* 2.0 l_0_2_7) l_0_2_8)) 0.0))))
(assert
 (let ((?x341 (* l_0_2_7 l_0_2_7)))
 (let ((?x336 (* (/ 1.0 4.0) _a_1_)))
 (let ((?x334 (* (/ 1.0 2.0) _a_0_)))
 (let ((?x337 (+ ?x334 ?x336)))
 (= (- (- ?x337 (* (* 82.0 l_0_2_4) l_0_2_4)) ?x341) 0.0))))))
(assert
 (let ((?x376 (* l_0_2_9 l_0_2_9)))
 (let ((?x374 (* l_0_2_8 l_0_2_8)))
 (let ((?x320 (* l_0_2_4 l_0_2_4)))
 (let ((?x362 (* (/ 9997291.0 10000000.0) _a_1_)))
 (let ((?x360 (- (- (* (* (* (- 2.0) _a_0_) l_0_2_1) l_0_2_2) (* (/ 2709.0 10000000.0) _a_0_)) (* (* _a_1_ l_0_2_1) l_0_2_1))))
 (let ((?x370 (- (+ (- (+ ?x360 ?x362) (* (* 162.0 l_0_2_4) l_0_2_5)) ?x320) (* (* 82.0 l_0_2_5) l_0_2_5))))
 (= (- (- (- ?x370 (* (* 82.0 l_0_2_6) l_0_2_6)) ?x374) ?x376) 0.0))))))))
(assert
 (let ((?x429 (* (/ 2709.0 5000000.0) _a_1_)))
 (let ((?x427 (- (* (- _a_0_) (+ (* l_0_2_2 l_0_2_2) (* l_0_2_3 l_0_2_3))) (* (* (* 2.0 _a_1_) l_0_2_1) l_0_2_2))))
 (let ((?x436 (- (+ (- ?x427 ?x429) (* (* 2.0 l_0_2_4) l_0_2_5)) (* (* 81.0 l_0_2_5) l_0_2_5))))
 (= (- ?x436 (* (* 81.0 l_0_2_6) l_0_2_6)) 0.0)))))
(assert
 (let ((?x403 (* l_0_2_6 l_0_2_6)))
 (let ((?x397 (* l_0_2_5 l_0_2_5)))
 (let ((?x474 (* (/ 7338681.0 100000000000000.0) _a_1_)))
 (let ((?x475 (+ (* (- _a_1_) (+ (* l_0_2_2 l_0_2_2) (* l_0_2_3 l_0_2_3))) ?x474)))
 (= (+ (+ ?x475 ?x397) ?x403) 0.0))))))
(assert
 (>= l_0_2_1 0.0))
(assert
 (>= l_0_2_3 0.0))
(assert
 (>= l_0_2_4 0.0))
(assert
 (>= l_0_2_6 0.0))
(assert
 (>= l_0_2_7 0.0))
(assert
 (>= l_0_2_9 0.0))
(check-sat)
(get-model)